problem_generation/data/GISP/train/er_n=60_m=1073_p=0.60_SET2_setparam=100.00_alpha=0.50_703.lp
maximize
OBJ:100x0 + 100x1 + 100x2 + 100x3 + 100x4 + 100x5 + 100x6 + 100x7 + 100x8 + 100x9 + 100x10 + 100x11 + 100x12 + 100x13 + 100x14 + 100x15 + 100x16 + 100x17 + 100x18 + 100x19 + 100x20 + 100x21 + 100x22 + 100x23 + 100x24 + 100x25 + 100x26 + 100x27 + 100x28 + 100x29 + 100x30 + 100x31 + 100x32 + 100x33 + 100x34 + 100x35 + 100x36 + 100x37 + 100x38 + 100x39 + 100x40 + 100x41 + 100x42 + 100x43 + 100x44 + 100x45 + 100x46 + 100x47 + 100x48 + 100x49 + 100x50 + 100x51 + 100x52 + 100x53 + 100x54 + 100x55 + 100x56 + 100x57 + 100x58 + 100x59 - y36_53 - y15_30 - y26_30 - y7_26 - y18_35 - y8_9 - y0_5 - y21_37 - y0_14 - y11_14 - y29_50 - y11_23 - y41_42 - y33_38 - y41_51 - y25_34 - y33_47 - y44_56 - y14_15 - y22_28 - y2_59 - y3_33 - y3_42 - y14_51 - y17_44 - y18_21 - y36_57 - y18_30 - y6_34 - y6_43 - y29_45 - y29_54 - y25_29 - y10_40 - y33_42 - y2_54 - y3_19 - y14_19 - y3_28 - y28_39 - y17_48 - y28_48 - y9_44 - y28_57 - y29_31 - y48_53 - y25_33 - y3_5 - y32_41 - y24_46 - y17_34 - y17_43 - y47_56 - y28_52 - y6_42 - y29_44 - y40_44 - y39_48 - y2_8 - y10_21 - y20_53 - y25_28 - y2_35 - y32_36 - y13_32 - y32_45 - y43_45 - y51_58 - y3_18 - y43_54 - y24_50 - y35_50 - y16_46 - y24_59 - y9_25 - y17_38 - y9_34 - y17_47 - y28_47 - y6_19 - y6_28 - y6_37 - y6_46 - y10_16 - y39_52 - y2_21 - y3_4 - y32_49 - y43_49 - y1_43 - y32_58 - y43_58 - y13_54 - y24_54 - y35_54 - y9_11 - y5_22 - y28_33 - y9_38 - y5_49 - y6_14 - y5_58 - y50_57 - y6_32 - y11_56 - y20_34 - y39_56 - y2_16 - y31_52 - y12_48 - y23_48 - y12_57 - y13_22 - y4_53 - y1_38 - y43_53 - y1_47 - y5_8 - y1_56 - y16_54 - y5_17 - y17_19 - y9_15 - y5_35 - y17_37 - y28_37 - y9_33 - y6_9 - y27_41 - y27_50 - y42_48 - y27_59 - y0_51 - y39_42 - y23_25 - y12_34 - y20_47 - y4_30 - y31_56 - y4_39 - y12_52 - y4_48 - y13_26 - y4_57 - y1_33 - y16_31 - y46_50 - y38_46 - y46_59 - y15_53 - y49_55 - y9_28 - y7_58 - y18_58 - y27_45 - y42_43 - y27_54 - y11_37 - y8_50 - y19_50 - y30_50 - y8_59 - y12_29 - y12_38 - y23_38 - y20_51 - y12_47 - y12_56 - y13_21 - y4_52 - y16_17 - y13_30 - y37_58 - y16_35 - y5_16 - y9_14 - y5_25 - y19_36 - y30_36 - y27_49 - y0_32 - y11_32 - y50_51 - y0_41 - y8_54 - y19_54 - y42_56 - y0_50 - y11_50 - y12_15 - y4_11 - y12_24 - y20_37 - y4_20 - y31_37 - y24_25 - y45_57 - y56_57 - y3_51 - y15_34 - y15_43 - y46_58 - y7_39 - y57_58 - y15_52 - y18_48 - y8_22 - y0_18 - y11_18 - y8_31 - y11_27 - y30_49 - y0_45 - y4_6 - y52_55 - y4_15 - y23_28 - y4_33 - y53_56 - y34_52 - y3_55 - y14_55 - y26_29 - y15_38 - y38_49 - y18_52 - y0_13 - y8_26 - y27_39 - y19_35 - y0_31 - y11_40 - y11_49 - y12_14 - y10_53 - y33_55 - y25_51 - y4_28 - y2_58 - y22_36 - y3_32 - y45_56 - y14_50 - y15_33 - y26_33 - y7_38 - y26_51 - y7_47 - y18_56 - y11_17 - y8_30 - y11_26 - y33_41 - y4_14 - y10_48 - y25_46 - y3_27 - y3_45 - y22_58 - y26_28 - y26_37 - y29_39 - y11_12 - y40_48 - y0_21 - y6_55 - y11_21 - y21_53 - y25_32 - y4_9 - y44_45 - y25_41 - y10_52 - y33_54 - y44_54 - y25_50 - y2_57 - y14_22 - y3_31 - y22_44 - y3_40 - y14_40 - y37_42 - y18_19 - y47_55 - y18_28 - y0_7 - y29_43 - y48_56 - y0_16 - y6_59 - y41_44 - y2_43 - y3_35 - y15_18 - y36_50 - y47_50 - y17_46 - y36_59 - y5_53 - y28_55 - y9_51 - y0_2 - y6_36 - y29_38 - y21_34 - y29_47 - y40_47 - y29_56 - y2_20 - y10_42 - y33_44 - y25_40 - y10_51 - y14_21 - y43_57 - y24_53 - y35_53 - y7_9 - y9_37 - y28_50 - y9_46 - y6_22 - y9_55 - y6_40 - y29_42 - y40_42 - y40_51 - y10_19 - y39_55 - y2_15 - y10_28 - y25_35 - y32_34 - y14_16 - y3_25 - y17_18 - y36_40 - y17_36 - y28_36 - y28_45 - y36_58 - y17_54 - y9_50 - y9_59 - y2_10 - y20_55 - y54_57 - y10_32 - y23_51 - y2_37 - y4_56 - y13_34 - y43_47 - y24_43 - y35_43 - y1_50 - y13_52 - y36_44 - y17_40 - y9_36 - y17_49 - y9_45 - y9_54 - y42_51 - y20_41 - y31_50 - y12_46 - y31_59 - y4_42 - y4_51 - y16_34 - y35_47 - y16_52 - y5_15 - y46_53 - y28_35 - y6_16 - y6_25 - y27_57 - y8_53 - y39_40 - y39_49 - y2_9 - y23_41 - y2_18 - y31_54 - y54_56 - y32_37 - y1_31 - y13_33 - y32_46 - y16_29 - y16_38 - y35_51 - y5_10 - y38_44 - y17_21 - y28_30 - y9_35 - y27_43 - y30_39 - y27_52 - y19_48 - y20_22 - y12_18 - y39_44 - y20_40 - y31_58 - y4_41 - y13_28 - y24_28 - y4_59 - y24_37 - y5_23 - y9_21 - y38_57 - y5_32 - y49_57 - y27_38 - y8_34 - y0_30 - y27_56 - y8_52 - y19_52 - y30_52 - y0_48 - y11_48 - y31_35 - y4_18 - y31_44 - y12_40 - y23_40 - y4_36 - y12_49 - y45_46 - y1_21 - y13_23 - y53_59 - y45_55 - y46_47 - y38_43 - y5_18 - y7_46 - y26_59 - y8_20 - y27_33 - y11_25 - y42_49 - y0_43 - y19_56 - y20_21 - y30_56 - y0_52 - y12_17 - y52_53 - y12_26 - y33_58 - y44_58 - y12_35 - y23_35 - y4_31 - y34_41 - y45_50 - y37_46 - y16_23 - y22_57 - y45_59 - y56_59 - y26_27 - y26_36 - y18_32 - y15_45 - y38_56 - y18_50 - y27_28 - y19_24 - y8_33 - y19_33 - y27_46 - y30_33 - y19_51 - y11_47 - y20_25 - y12_21 - y52_57 - y44_53 - y23_30 - y22_43 - y22_52 - y7_27 - y18_27 - y15_40 - y26_40 - y18_45 - y26_58 - y0_6 - y7_54 - y18_54 - y8_28 - y0_24 - y21_56 - y11_42 - y41_43 - y41_52 - y4_12 - y10_46 - y4_21 - y44_57 - y1_6 - y22_38 - y34_40 - y45_49 - y14_52 - y7_22 - y7_31 - y18_40 - y0_1 - y18_49 - y0_10 - y30_32 - y0_28 - y11_28 - y41_56 - y4_16 - y33_52 - y44_52 - y22_24 - y2_55 - y22_33 - y34_44 - y3_38 - y37_40 - y14_47
 Subject to
C1: x0+x1-y0_1 <=1 
C2: x0+x2-y0_2 <=1 
C3: x0+x4 <=1 
C4: x0+x5-y0_5 <=1 
C5: x0+x6-y0_6 <=1 
C6: x0+x7-y0_7 <=1 
C7: x0+x8 <=1 
C8: x0+x10-y0_10 <=1 
C9: x0+x11 <=1 
C10: x0+x13-y0_13 <=1 
C11: x0+x14-y0_14 <=1 
C12: x0+x16-y0_16 <=1 
C13: x0+x17 <=1 
C14: x0+x18-y0_18 <=1 
C15: x0+x19 <=1 
C16: x0+x21-y0_21 <=1 
C17: x0+x23 <=1 
C18: x0+x24-y0_24 <=1 
C19: x0+x25 <=1 
C20: x0+x28-y0_28 <=1 
C21: x0+x30-y0_30 <=1 
C22: x0+x31-y0_31 <=1 
C23: x0+x32-y0_32 <=1 
C24: x0+x33 <=1 
C25: x0+x35 <=1 
C26: x0+x36 <=1 
C27: x0+x38 <=1 
C28: x0+x41-y0_41 <=1 
C29: x0+x43-y0_43 <=1 
C30: x0+x44 <=1 
C31: x0+x45-y0_45 <=1 
C32: x0+x46 <=1 
C33: x0+x48-y0_48 <=1 
C34: x0+x49 <=1 
C35: x0+x50-y0_50 <=1 
C36: x0+x51-y0_51 <=1 
C37: x0+x52-y0_52 <=1 
C38: x0+x53 <=1 
C39: x0+x54 <=1 
C40: x0+x57 <=1 
C41: x0+x58 <=1 
C42: x1+x2 <=1 
C43: x1+x3 <=1 
C44: x1+x4 <=1 
C45: x1+x5 <=1 
C46: x1+x6-y1_6 <=1 
C47: x1+x8 <=1 
C48: x1+x14 <=1 
C49: x1+x15 <=1 
C50: x1+x16 <=1 
C51: x1+x20 <=1 
C52: x1+x21-y1_21 <=1 
C53: x1+x24 <=1 
C54: x1+x25 <=1 
C55: x1+x26 <=1 
C56: x1+x27 <=1 
C57: x1+x29 <=1 
C58: x1+x31-y1_31 <=1 
C59: x1+x33-y1_33 <=1 
C60: x1+x34 <=1 
C61: x1+x36 <=1 
C62: x1+x38-y1_38 <=1 
C63: x1+x39 <=1 
C64: x1+x40 <=1 
C65: x1+x43-y1_43 <=1 
C66: x1+x44 <=1 
C67: x1+x47-y1_47 <=1 
C68: x1+x49 <=1 
C69: x1+x50-y1_50 <=1 
C70: x1+x51 <=1 
C71: x1+x53 <=1 
C72: x1+x56-y1_56 <=1 
C73: x1+x59 <=1 
C74: x2+x3 <=1 
C75: x2+x7 <=1 
C76: x2+x8-y2_8 <=1 
C77: x2+x9-y2_9 <=1 
C78: x2+x10-y2_10 <=1 
C79: x2+x13 <=1 
C80: x2+x15-y2_15 <=1 
C81: x2+x16-y2_16 <=1 
C82: x2+x17 <=1 
C83: x2+x18-y2_18 <=1 
C84: x2+x20-y2_20 <=1 
C85: x2+x21-y2_21 <=1 
C86: x2+x22 <=1 
C87: x2+x24 <=1 
C88: x2+x25 <=1 
C89: x2+x26 <=1 
C90: x2+x29 <=1 
C91: x2+x30 <=1 
C92: x2+x35-y2_35 <=1 
C93: x2+x36 <=1 
C94: x2+x37-y2_37 <=1 
C95: x2+x41 <=1 
C96: x2+x42 <=1 
C97: x2+x43-y2_43 <=1 
C98: x2+x45 <=1 
C99: x2+x47 <=1 
C100: x2+x49 <=1 
C101: x2+x50 <=1 
C102: x2+x54-y2_54 <=1 
C103: x2+x55-y2_55 <=1 
C104: x2+x57-y2_57 <=1 
C105: x2+x58-y2_58 <=1 
C106: x2+x59-y2_59 <=1 
C107: x3+x4-y3_4 <=1 
C108: x3+x5-y3_5 <=1 
C109: x3+x6 <=1 
C110: x3+x8 <=1 
C111: x3+x9 <=1 
C112: x3+x11 <=1 
C113: x3+x12 <=1 
C114: x3+x13 <=1 
C115: x3+x14 <=1 
C116: x3+x16 <=1 
C117: x3+x17 <=1 
C118: x3+x18-y3_18 <=1 
C119: x3+x19-y3_19 <=1 
C120: x3+x22 <=1 
C121: x3+x23 <=1 
C122: x3+x24 <=1 
C123: x3+x25-y3_25 <=1 
C124: x3+x27-y3_27 <=1 
C125: x3+x28-y3_28 <=1 
C126: x3+x29 <=1 
C127: x3+x31-y3_31 <=1 
C128: x3+x32-y3_32 <=1 
C129: x3+x33-y3_33 <=1 
C130: x3+x35-y3_35 <=1 
C131: x3+x37 <=1 
C132: x3+x38-y3_38 <=1 
C133: x3+x40-y3_40 <=1 
C134: x3+x42-y3_42 <=1 
C135: x3+x43 <=1 
C136: x3+x44 <=1 
C137: x3+x45-y3_45 <=1 
C138: x3+x47 <=1 
C139: x3+x50 <=1 
C140: x3+x51-y3_51 <=1 
C141: x3+x52 <=1 
C142: x3+x54 <=1 
C143: x3+x55-y3_55 <=1 
C144: x3+x57 <=1 
C145: x4+x6-y4_6 <=1 
C146: x4+x8 <=1 
C147: x4+x9-y4_9 <=1 
C148: x4+x11-y4_11 <=1 
C149: x4+x12-y4_12 <=1 
C150: x4+x14-y4_14 <=1 
C151: x4+x15-y4_15 <=1 
C152: x4+x16-y4_16 <=1 
C153: x4+x18-y4_18 <=1 
C154: x4+x19 <=1 
C155: x4+x20-y4_20 <=1 
C156: x4+x21-y4_21 <=1 
C157: x4+x26 <=1 
C158: x4+x28-y4_28 <=1 
C159: x4+x30-y4_30 <=1 
C160: x4+x31-y4_31 <=1 
C161: x4+x32 <=1 
C162: x4+x33-y4_33 <=1 
C163: x4+x35 <=1 
C164: x4+x36-y4_36 <=1 
C165: x4+x38 <=1 
C166: x4+x39-y4_39 <=1 
C167: x4+x40 <=1 
C168: x4+x41-y4_41 <=1 
C169: x4+x42-y4_42 <=1 
C170: x4+x44 <=1 
C171: x4+x45 <=1 
C172: x4+x46 <=1 
C173: x4+x48-y4_48 <=1 
C174: x4+x50 <=1 
C175: x4+x51-y4_51 <=1 
C176: x4+x52-y4_52 <=1 
C177: x4+x53-y4_53 <=1 
C178: x4+x54 <=1 
C179: x4+x56-y4_56 <=1 
C180: x4+x57-y4_57 <=1 
C181: x4+x58 <=1 
C182: x4+x59-y4_59 <=1 
C183: x5+x6 <=1 
C184: x5+x7 <=1 
C185: x5+x8-y5_8 <=1 
C186: x5+x9 <=1 
C187: x5+x10-y5_10 <=1 
C188: x5+x11 <=1 
C189: x5+x12 <=1 
C190: x5+x13 <=1 
C191: x5+x15-y5_15 <=1 
C192: x5+x16-y5_16 <=1 
C193: x5+x17-y5_17 <=1 
C194: x5+x18-y5_18 <=1 
C195: x5+x19 <=1 
C196: x5+x20 <=1 
C197: x5+x21 <=1 
C198: x5+x22-y5_22 <=1 
C199: x5+x23-y5_23 <=1 
C200: x5+x24 <=1 
C201: x5+x25-y5_25 <=1 
C202: x5+x26 <=1 
C203: x5+x27 <=1 
C204: x5+x32-y5_32 <=1 
C205: x5+x35-y5_35 <=1 
C206: x5+x38 <=1 
C207: x5+x39 <=1 
C208: x5+x42 <=1 
C209: x5+x43 <=1 
C210: x5+x46 <=1 
C211: x5+x47 <=1 
C212: x5+x48 <=1 
C213: x5+x49-y5_49 <=1 
C214: x5+x53-y5_53 <=1 
C215: x5+x55 <=1 
C216: x5+x56 <=1 
C217: x5+x57 <=1 
C218: x5+x58-y5_58 <=1 
C219: x5+x59 <=1 
C220: x6+x7 <=1 
C221: x6+x9-y6_9 <=1 
C222: x6+x12 <=1 
C223: x6+x13 <=1 
C224: x6+x14-y6_14 <=1 
C225: x6+x15 <=1 
C226: x6+x16-y6_16 <=1 
C227: x6+x17 <=1 
C228: x6+x18 <=1 
C229: x6+x19-y6_19 <=1 
C230: x6+x20 <=1 
C231: x6+x22-y6_22 <=1 
C232: x6+x25-y6_25 <=1 
C233: x6+x26 <=1 
C234: x6+x28-y6_28 <=1 
C235: x6+x32-y6_32 <=1 
C236: x6+x34-y6_34 <=1 
C237: x6+x36-y6_36 <=1 
C238: x6+x37-y6_37 <=1 
C239: x6+x38 <=1 
C240: x6+x40-y6_40 <=1 
C241: x6+x41 <=1 
C242: x6+x42-y6_42 <=1 
C243: x6+x43-y6_43 <=1 
C244: x6+x44 <=1 
C245: x6+x45 <=1 
C246: x6+x46-y6_46 <=1 
C247: x6+x48 <=1 
C248: x6+x51 <=1 
C249: x6+x55-y6_55 <=1 
C250: x6+x57 <=1 
C251: x6+x59-y6_59 <=1 
C252: x7+x9-y7_9 <=1 
C253: x7+x15 <=1 
C254: x7+x17 <=1 
C255: x7+x20 <=1 
C256: x7+x22-y7_22 <=1 
C257: x7+x24 <=1 
C258: x7+x25 <=1 
C259: x7+x26-y7_26 <=1 
C260: x7+x27-y7_27 <=1 
C261: x7+x28 <=1 
C262: x7+x31-y7_31 <=1 
C263: x7+x33 <=1 
C264: x7+x38-y7_38 <=1 
C265: x7+x39-y7_39 <=1 
C266: x7+x40 <=1 
C267: x7+x42 <=1 
C268: x7+x45 <=1 
C269: x7+x46-y7_46 <=1 
C270: x7+x47-y7_47 <=1 
C271: x7+x48 <=1 
C272: x7+x50 <=1 
C273: x7+x52 <=1 
C274: x7+x54-y7_54 <=1 
C275: x7+x55 <=1 
C276: x7+x56 <=1 
C277: x7+x57 <=1 
C278: x7+x58-y7_58 <=1 
C279: x8+x9-y8_9 <=1 
C280: x8+x11 <=1 
C281: x8+x12 <=1 
C282: x8+x15 <=1 
C283: x8+x16 <=1 
C284: x8+x17 <=1 
C285: x8+x18 <=1 
C286: x8+x19 <=1 
C287: x8+x20-y8_20 <=1 
C288: x8+x22-y8_22 <=1 
C289: x8+x26-y8_26 <=1 
C290: x8+x27 <=1 
C291: x8+x28-y8_28 <=1 
C292: x8+x30-y8_30 <=1 
C293: x8+x31-y8_31 <=1 
C294: x8+x32 <=1 
C295: x8+x33-y8_33 <=1 
C296: x8+x34-y8_34 <=1 
C297: x8+x35 <=1 
C298: x8+x36 <=1 
C299: x8+x40 <=1 
C300: x8+x41 <=1 
C301: x8+x43 <=1 
C302: x8+x45 <=1 
C303: x8+x46 <=1 
C304: x8+x49 <=1 
C305: x8+x50-y8_50 <=1 
C306: x8+x51 <=1 
C307: x8+x52-y8_52 <=1 
C308: x8+x53-y8_53 <=1 
C309: x8+x54-y8_54 <=1 
C310: x8+x57 <=1 
C311: x8+x58 <=1 
C312: x8+x59-y8_59 <=1 
C313: x9+x11-y9_11 <=1 
C314: x9+x14-y9_14 <=1 
C315: x9+x15-y9_15 <=1 
C316: x9+x21-y9_21 <=1 
C317: x9+x23 <=1 
C318: x9+x25-y9_25 <=1 
C319: x9+x27 <=1 
C320: x9+x28-y9_28 <=1 
C321: x9+x33-y9_33 <=1 
C322: x9+x34-y9_34 <=1 
C323: x9+x35-y9_35 <=1 
C324: x9+x36-y9_36 <=1 
C325: x9+x37-y9_37 <=1 
C326: x9+x38-y9_38 <=1 
C327: x9+x39 <=1 
C328: x9+x42 <=1 
C329: x9+x43 <=1 
C330: x9+x44-y9_44 <=1 
C331: x9+x45-y9_45 <=1 
C332: x9+x46-y9_46 <=1 
C333: x9+x47 <=1 
C334: x9+x48 <=1 
C335: x9+x49 <=1 
C336: x9+x50-y9_50 <=1 
C337: x9+x51-y9_51 <=1 
C338: x9+x52 <=1 
C339: x9+x54-y9_54 <=1 
C340: x9+x55-y9_55 <=1 
C341: x9+x58 <=1 
C342: x9+x59-y9_59 <=1 
C343: x10+x11 <=1 
C344: x10+x16-y10_16 <=1 
C345: x10+x18 <=1 
C346: x10+x19-y10_19 <=1 
C347: x10+x20 <=1 
C348: x10+x21-y10_21 <=1 
C349: x10+x22 <=1 
C350: x10+x23 <=1 
C351: x10+x25 <=1 
C352: x10+x26 <=1 
C353: x10+x28-y10_28 <=1 
C354: x10+x29 <=1 
C355: x10+x32-y10_32 <=1 
C356: x10+x33 <=1 
C357: x10+x34 <=1 
C358: x10+x35 <=1 
C359: x10+x36 <=1 
C360: x10+x39 <=1 
C361: x10+x40-y10_40 <=1 
C362: x10+x42-y10_42 <=1 
C363: x10+x46-y10_46 <=1 
C364: x10+x47 <=1 
C365: x10+x48-y10_48 <=1 
C366: x10+x51-y10_51 <=1 
C367: x10+x52-y10_52 <=1 
C368: x10+x53-y10_53 <=1 
C369: x10+x54 <=1 
C370: x10+x55 <=1 
C371: x11+x12-y11_12 <=1 
C372: x11+x14-y11_14 <=1 
C373: x11+x16 <=1 
C374: x11+x17-y11_17 <=1 
C375: x11+x18-y11_18 <=1 
C376: x11+x20 <=1 
C377: x11+x21-y11_21 <=1 
C378: x11+x23-y11_23 <=1 
C379: x11+x24 <=1 
C380: x11+x25-y11_25 <=1 
C381: x11+x26-y11_26 <=1 
C382: x11+x27-y11_27 <=1 
C383: x11+x28-y11_28 <=1 
C384: x11+x32-y11_32 <=1 
C385: x11+x34 <=1 
C386: x11+x36 <=1 
C387: x11+x37-y11_37 <=1 
C388: x11+x38 <=1 
C389: x11+x39 <=1 
C390: x11+x40-y11_40 <=1 
C391: x11+x41 <=1 
C392: x11+x42-y11_42 <=1 
C393: x11+x45 <=1 
C394: x11+x47-y11_47 <=1 
C395: x11+x48-y11_48 <=1 
C396: x11+x49-y11_49 <=1 
C397: x11+x50-y11_50 <=1 
C398: x11+x51 <=1 
C399: x11+x52 <=1 
C400: x11+x53 <=1 
C401: x11+x54 <=1 
C402: x11+x56-y11_56 <=1 
C403: x12+x14-y12_14 <=1 
C404: x12+x15-y12_15 <=1 
C405: x12+x16 <=1 
C406: x12+x17-y12_17 <=1 
C407: x12+x18-y12_18 <=1 
C408: x12+x20 <=1 
C409: x12+x21-y12_21 <=1 
C410: x12+x24-y12_24 <=1 
C411: x12+x25 <=1 
C412: x12+x26-y12_26 <=1 
C413: x12+x28 <=1 
C414: x12+x29-y12_29 <=1 
C415: x12+x30 <=1 
C416: x12+x34-y12_34 <=1 
C417: x12+x35-y12_35 <=1 
C418: x12+x37 <=1 
C419: x12+x38-y12_38 <=1 
C420: x12+x40-y12_40 <=1 
C421: x12+x44 <=1 
C422: x12+x46-y12_46 <=1 
C423: x12+x47-y12_47 <=1 
C424: x12+x48-y12_48 <=1 
C425: x12+x49-y12_49 <=1 
C426: x12+x50 <=1 
C427: x12+x52-y12_52 <=1 
C428: x12+x54 <=1 
C429: x12+x56-y12_56 <=1 
C430: x12+x57-y12_57 <=1 
C431: x12+x58 <=1 
C432: x12+x59 <=1 
C433: x13+x14 <=1 
C434: x13+x16 <=1 
C435: x13+x19 <=1 
C436: x13+x21-y13_21 <=1 
C437: x13+x22-y13_22 <=1 
C438: x13+x23-y13_23 <=1 
C439: x13+x24 <=1 
C440: x13+x26-y13_26 <=1 
C441: x13+x28-y13_28 <=1 
C442: x13+x29 <=1 
C443: x13+x30-y13_30 <=1 
C444: x13+x31 <=1 
C445: x13+x32-y13_32 <=1 
C446: x13+x33-y13_33 <=1 
C447: x13+x34-y13_34 <=1 
C448: x13+x37 <=1 
C449: x13+x38 <=1 
C450: x13+x40 <=1 
C451: x13+x44 <=1 
C452: x13+x52-y13_52 <=1 
C453: x13+x53 <=1 
C454: x13+x54-y13_54 <=1 
C455: x13+x55 <=1 
C456: x13+x56 <=1 
C457: x13+x57 <=1 
C458: x13+x58 <=1 
C459: x13+x59 <=1 
C460: x14+x15-y14_15 <=1 
C461: x14+x16-y14_16 <=1 
C462: x14+x17 <=1 
C463: x14+x18 <=1 
C464: x14+x19-y14_19 <=1 
C465: x14+x21-y14_21 <=1 
C466: x14+x22-y14_22 <=1 
C467: x14+x24 <=1 
C468: x14+x28 <=1 
C469: x14+x29 <=1 
C470: x14+x30 <=1 
C471: x14+x31 <=1 
C472: x14+x33 <=1 
C473: x14+x35 <=1 
C474: x14+x40-y14_40 <=1 
C475: x14+x44 <=1 
C476: x14+x45 <=1 
C477: x14+x46 <=1 
C478: x14+x47-y14_47 <=1 
C479: x14+x48 <=1 
C480: x14+x50-y14_50 <=1 
C481: x14+x51-y14_51 <=1 
C482: x14+x52-y14_52 <=1 
C483: x14+x55-y14_55 <=1 
C484: x14+x57 <=1 
C485: x14+x58 <=1 
C486: x14+x59 <=1 
C487: x15+x16 <=1 
C488: x15+x18-y15_18 <=1 
C489: x15+x19 <=1 
C490: x15+x20 <=1 
C491: x15+x21 <=1 
C492: x15+x22 <=1 
C493: x15+x23 <=1 
C494: x15+x24 <=1 
C495: x15+x29 <=1 
C496: x15+x30-y15_30 <=1 
C497: x15+x33-y15_33 <=1 
C498: x15+x34-y15_34 <=1 
C499: x15+x38-y15_38 <=1 
C500: x15+x39 <=1 
C501: x15+x40-y15_40 <=1 
C502: x15+x43-y15_43 <=1 
C503: x15+x45-y15_45 <=1 
C504: x15+x46 <=1 
C505: x15+x48 <=1 
C506: x15+x50 <=1 
C507: x15+x51 <=1 
C508: x15+x52-y15_52 <=1 
C509: x15+x53-y15_53 <=1 
C510: x15+x55 <=1 
C511: x15+x56 <=1 
C512: x15+x58 <=1 
C513: x16+x17-y16_17 <=1 
C514: x16+x18 <=1 
C515: x16+x22 <=1 
C516: x16+x23-y16_23 <=1 
C517: x16+x28 <=1 
C518: x16+x29-y16_29 <=1 
C519: x16+x31-y16_31 <=1 
C520: x16+x33 <=1 
C521: x16+x34-y16_34 <=1 
C522: x16+x35-y16_35 <=1 
C523: x16+x37 <=1 
C524: x16+x38-y16_38 <=1 
C525: x16+x41 <=1 
C526: x16+x46-y16_46 <=1 
C527: x16+x47 <=1 
C528: x16+x48 <=1 
C529: x16+x51 <=1 
C530: x16+x52-y16_52 <=1 
C531: x16+x54-y16_54 <=1 
C532: x16+x55 <=1 
C533: x16+x56 <=1 
C534: x16+x58 <=1 
C535: x17+x18-y17_18 <=1 
C536: x17+x19-y17_19 <=1 
C537: x17+x21-y17_21 <=1 
C538: x17+x23 <=1 
C539: x17+x24 <=1 
C540: x17+x25 <=1 
C541: x17+x28 <=1 
C542: x17+x29 <=1 
C543: x17+x34-y17_34 <=1 
C544: x17+x35 <=1 
C545: x17+x36-y17_36 <=1 
C546: x17+x37-y17_37 <=1 
C547: x17+x38-y17_38 <=1 
C548: x17+x39 <=1 
C549: x17+x40-y17_40 <=1 
C550: x17+x43-y17_43 <=1 
C551: x17+x44-y17_44 <=1 
C552: x17+x46-y17_46 <=1 
C553: x17+x47-y17_47 <=1 
C554: x17+x48-y17_48 <=1 
C555: x17+x49-y17_49 <=1 
C556: x17+x53 <=1 
C557: x17+x54-y17_54 <=1 
C558: x17+x55 <=1 
C559: x18+x19-y18_19 <=1 
C560: x18+x21-y18_21 <=1 
C561: x18+x24 <=1 
C562: x18+x26 <=1 
C563: x18+x27-y18_27 <=1 
C564: x18+x28-y18_28 <=1 
C565: x18+x30-y18_30 <=1 
C566: x18+x32-y18_32 <=1 
C567: x18+x33 <=1 
C568: x18+x35-y18_35 <=1 
C569: x18+x38 <=1 
C570: x18+x40-y18_40 <=1 
C571: x18+x41 <=1 
C572: x18+x42 <=1 
C573: x18+x43 <=1 
C574: x18+x45-y18_45 <=1 
C575: x18+x48-y18_48 <=1 
C576: x18+x49-y18_49 <=1 
C577: x18+x50-y18_50 <=1 
C578: x18+x52-y18_52 <=1 
C579: x18+x53 <=1 
C580: x18+x54-y18_54 <=1 
C581: x18+x56-y18_56 <=1 
C582: x18+x57 <=1 
C583: x18+x58-y18_58 <=1 
C584: x18+x59 <=1 
C585: x19+x20 <=1 
C586: x19+x21 <=1 
C587: x19+x24-y19_24 <=1 
C588: x19+x29 <=1 
C589: x19+x33-y19_33 <=1 
C590: x19+x35-y19_35 <=1 
C591: x19+x36-y19_36 <=1 
C592: x19+x38 <=1 
C593: x19+x43 <=1 
C594: x19+x45 <=1 
C595: x19+x48-y19_48 <=1 
C596: x19+x49 <=1 
C597: x19+x50-y19_50 <=1 
C598: x19+x51-y19_51 <=1 
C599: x19+x52-y19_52 <=1 
C600: x19+x53 <=1 
C601: x19+x54-y19_54 <=1 
C602: x19+x56-y19_56 <=1 
C603: x19+x57 <=1 
C604: x20+x21-y20_21 <=1 
C605: x20+x22-y20_22 <=1 
C606: x20+x23 <=1 
C607: x20+x24 <=1 
C608: x20+x25-y20_25 <=1 
C609: x20+x27 <=1 
C610: x20+x28 <=1 
C611: x20+x30 <=1 
C612: x20+x34-y20_34 <=1 
C613: x20+x35 <=1 
C614: x20+x37-y20_37 <=1 
C615: x20+x38 <=1 
C616: x20+x39 <=1 
C617: x20+x40-y20_40 <=1 
C618: x20+x41-y20_41 <=1 
C619: x20+x42 <=1 
C620: x20+x43 <=1 
C621: x20+x45 <=1 
C622: x20+x47-y20_47 <=1 
C623: x20+x49 <=1 
C624: x20+x51-y20_51 <=1 
C625: x20+x52 <=1 
C626: x20+x53-y20_53 <=1 
C627: x20+x54 <=1 
C628: x20+x55-y20_55 <=1 
C629: x20+x56 <=1 
C630: x20+x57 <=1 
C631: x20+x58 <=1 
C632: x21+x22 <=1 
C633: x21+x28 <=1 
C634: x21+x34-y21_34 <=1 
C635: x21+x35 <=1 
C636: x21+x37-y21_37 <=1 
C637: x21+x39 <=1 
C638: x21+x40 <=1 
C639: x21+x42 <=1 
C640: x21+x43 <=1 
C641: x21+x44 <=1 
C642: x21+x47 <=1 
C643: x21+x48 <=1 
C644: x21+x50 <=1 
C645: x21+x53-y21_53 <=1 
C646: x21+x54 <=1 
C647: x21+x56-y21_56 <=1 
C648: x21+x58 <=1 
C649: x21+x59 <=1 
C650: x22+x23 <=1 
C651: x22+x24-y22_24 <=1 
C652: x22+x25 <=1 
C653: x22+x26 <=1 
C654: x22+x27 <=1 
C655: x22+x28-y22_28 <=1 
C656: x22+x30 <=1 
C657: x22+x32 <=1 
C658: x22+x33-y22_33 <=1 
C659: x22+x34 <=1 
C660: x22+x36-y22_36 <=1 
C661: x22+x38-y22_38 <=1 
C662: x22+x39 <=1 
C663: x22+x41 <=1 
C664: x22+x42 <=1 
C665: x22+x43-y22_43 <=1 
C666: x22+x44-y22_44 <=1 
C667: x22+x45 <=1 
C668: x22+x47 <=1 
C669: x22+x48 <=1 
C670: x22+x49 <=1 
C671: x22+x52-y22_52 <=1 
C672: x22+x57-y22_57 <=1 
C673: x22+x58-y22_58 <=1 
C674: x22+x59 <=1 
C675: x23+x24 <=1 
C676: x23+x25-y23_25 <=1 
C677: x23+x27 <=1 
C678: x23+x28-y23_28 <=1 
C679: x23+x30-y23_30 <=1 
C680: x23+x31 <=1 
C681: x23+x32 <=1 
C682: x23+x35-y23_35 <=1 
C683: x23+x38-y23_38 <=1 
C684: x23+x40-y23_40 <=1 
C685: x23+x41-y23_41 <=1 
C686: x23+x43 <=1 
C687: x23+x47 <=1 
C688: x23+x48-y23_48 <=1 
C689: x23+x51-y23_51 <=1 
C690: x23+x54 <=1 
C691: x23+x55 <=1 
C692: x24+x25-y24_25 <=1 
C693: x24+x28-y24_28 <=1 
C694: x24+x37-y24_37 <=1 
C695: x24+x38 <=1 
C696: x24+x39 <=1 
C697: x24+x43-y24_43 <=1 
C698: x24+x45 <=1 
C699: x24+x46-y24_46 <=1 
C700: x24+x50-y24_50 <=1 
C701: x24+x53-y24_53 <=1 
C702: x24+x54-y24_54 <=1 
C703: x24+x58 <=1 
C704: x24+x59-y24_59 <=1 
C705: x25+x27 <=1 
C706: x25+x28-y25_28 <=1 
C707: x25+x29-y25_29 <=1 
C708: x25+x31 <=1 
C709: x25+x32-y25_32 <=1 
C710: x25+x33-y25_33 <=1 
C711: x25+x34-y25_34 <=1 
C712: x25+x35-y25_35 <=1 
C713: x25+x38 <=1 
C714: x25+x40-y25_40 <=1 
C715: x25+x41-y25_41 <=1 
C716: x25+x42 <=1 
C717: x25+x43 <=1 
C718: x25+x44 <=1 
C719: x25+x45 <=1 
C720: x25+x46-y25_46 <=1 
C721: x25+x47 <=1 
C722: x25+x50-y25_50 <=1 
C723: x25+x51-y25_51 <=1 
C724: x25+x55 <=1 
C725: x25+x56 <=1 
C726: x26+x27-y26_27 <=1 
C727: x26+x28-y26_28 <=1 
C728: x26+x29-y26_29 <=1 
C729: x26+x30-y26_30 <=1 
C730: x26+x32 <=1 
C731: x26+x33-y26_33 <=1 
C732: x26+x34 <=1 
C733: x26+x36-y26_36 <=1 
C734: x26+x37-y26_37 <=1 
C735: x26+x38 <=1 
C736: x26+x40-y26_40 <=1 
C737: x26+x41 <=1 
C738: x26+x43 <=1 
C739: x26+x44 <=1 
C740: x26+x45 <=1 
C741: x26+x47 <=1 
C742: x26+x48 <=1 
C743: x26+x49 <=1 
C744: x26+x50 <=1 
C745: x26+x51-y26_51 <=1 
C746: x26+x53 <=1 
C747: x26+x55 <=1 
C748: x26+x56 <=1 
C749: x26+x58-y26_58 <=1 
C750: x26+x59-y26_59 <=1 
C751: x27+x28-y27_28 <=1 
C752: x27+x29 <=1 
C753: x27+x32 <=1 
C754: x27+x33-y27_33 <=1 
C755: x27+x37 <=1 
C756: x27+x38-y27_38 <=1 
C757: x27+x39-y27_39 <=1 
C758: x27+x40 <=1 
C759: x27+x41-y27_41 <=1 
C760: x27+x43-y27_43 <=1 
C761: x27+x44 <=1 
C762: x27+x45-y27_45 <=1 
C763: x27+x46-y27_46 <=1 
C764: x27+x47 <=1 
C765: x27+x48 <=1 
C766: x27+x49-y27_49 <=1 
C767: x27+x50-y27_50 <=1 
C768: x27+x51 <=1 
C769: x27+x52-y27_52 <=1 
C770: x27+x53 <=1 
C771: x27+x54-y27_54 <=1 
C772: x27+x56-y27_56 <=1 
C773: x27+x57-y27_57 <=1 
C774: x27+x59-y27_59 <=1 
C775: x28+x30-y28_30 <=1 
C776: x28+x33-y28_33 <=1 
C777: x28+x35-y28_35 <=1 
C778: x28+x36-y28_36 <=1 
C779: x28+x37-y28_37 <=1 
C780: x28+x39-y28_39 <=1 
C781: x28+x43 <=1 
C782: x28+x45-y28_45 <=1 
C783: x28+x47-y28_47 <=1 
C784: x28+x48-y28_48 <=1 
C785: x28+x49 <=1 
C786: x28+x50-y28_50 <=1 
C787: x28+x51 <=1 
C788: x28+x52-y28_52 <=1 
C789: x28+x54 <=1 
C790: x28+x55-y28_55 <=1 
C791: x28+x56 <=1 
C792: x28+x57-y28_57 <=1 
C793: x28+x58 <=1 
C794: x28+x59 <=1 
C795: x29+x30 <=1 
C796: x29+x31-y29_31 <=1 
C797: x29+x32 <=1 
C798: x29+x33 <=1 
C799: x29+x35 <=1 
C800: x29+x37 <=1 
C801: x29+x38-y29_38 <=1 
C802: x29+x39-y29_39 <=1 
C803: x29+x41 <=1 
C804: x29+x42-y29_42 <=1 
C805: x29+x43-y29_43 <=1 
C806: x29+x44-y29_44 <=1 
C807: x29+x45-y29_45 <=1 
C808: x29+x47-y29_47 <=1 
C809: x29+x49 <=1 
C810: x29+x50-y29_50 <=1 
C811: x29+x53 <=1 
C812: x29+x54-y29_54 <=1 
C813: x29+x55 <=1 
C814: x29+x56-y29_56 <=1 
C815: x30+x31 <=1 
C816: x30+x32-y30_32 <=1 
C817: x30+x33-y30_33 <=1 
C818: x30+x34 <=1 
C819: x30+x35 <=1 
C820: x30+x36-y30_36 <=1 
C821: x30+x37 <=1 
C822: x30+x38 <=1 
C823: x30+x39-y30_39 <=1 
C824: x30+x40 <=1 
C825: x30+x43 <=1 
C826: x30+x45 <=1 
C827: x30+x46 <=1 
C828: x30+x48 <=1 
C829: x30+x49-y30_49 <=1 
C830: x30+x50-y30_50 <=1 
C831: x30+x52-y30_52 <=1 
C832: x30+x56-y30_56 <=1 
C833: x30+x57 <=1 
C834: x31+x34 <=1 
C835: x31+x35-y31_35 <=1 
C836: x31+x36 <=1 
C837: x31+x37-y31_37 <=1 
C838: x31+x40 <=1 
C839: x31+x41 <=1 
C840: x31+x43 <=1 
C841: x31+x44-y31_44 <=1 
C842: x31+x47 <=1 
C843: x31+x50-y31_50 <=1 
C844: x31+x52-y31_52 <=1 
C845: x31+x54-y31_54 <=1 
C846: x31+x55 <=1 
C847: x31+x56-y31_56 <=1 
C848: x31+x58-y31_58 <=1 
C849: x31+x59-y31_59 <=1 
C850: x32+x34-y32_34 <=1 
C851: x32+x36-y32_36 <=1 
C852: x32+x37-y32_37 <=1 
C853: x32+x39 <=1 
C854: x32+x41-y32_41 <=1 
C855: x32+x45-y32_45 <=1 
C856: x32+x46-y32_46 <=1 
C857: x32+x47 <=1 
C858: x32+x48 <=1 
C859: x32+x49-y32_49 <=1 
C860: x32+x52 <=1 
C861: x32+x54 <=1 
C862: x32+x55 <=1 
C863: x32+x58-y32_58 <=1 
C864: x33+x34 <=1 
C865: x33+x36 <=1 
C866: x33+x37 <=1 
C867: x33+x38-y33_38 <=1 
C868: x33+x41-y33_41 <=1 
C869: x33+x42-y33_42 <=1 
C870: x33+x44-y33_44 <=1 
C871: x33+x47-y33_47 <=1 
C872: x33+x48 <=1 
C873: x33+x49 <=1 
C874: x33+x51 <=1 
C875: x33+x52-y33_52 <=1 
C876: x33+x53 <=1 
C877: x33+x54-y33_54 <=1 
C878: x33+x55-y33_55 <=1 
C879: x33+x58-y33_58 <=1 
C880: x33+x59 <=1 
C881: x34+x35 <=1 
C882: x34+x37 <=1 
C883: x34+x39 <=1 
C884: x34+x40-y34_40 <=1 
C885: x34+x41-y34_41 <=1 
C886: x34+x42 <=1 
C887: x34+x43 <=1 
C888: x34+x44-y34_44 <=1 
C889: x34+x45 <=1 
C890: x34+x46 <=1 
C891: x34+x52-y34_52 <=1 
C892: x34+x53 <=1 
C893: x34+x55 <=1 
C894: x35+x36 <=1 
C895: x35+x42 <=1 
C896: x35+x43-y35_43 <=1 
C897: x35+x47-y35_47 <=1 
C898: x35+x50-y35_50 <=1 
C899: x35+x51-y35_51 <=1 
C900: x35+x53-y35_53 <=1 
C901: x35+x54-y35_54 <=1 
C902: x35+x56 <=1 
C903: x35+x58 <=1 
C904: x35+x59 <=1 
C905: x36+x39 <=1 
C906: x36+x40-y36_40 <=1 
C907: x36+x41 <=1 
C908: x36+x43 <=1 
C909: x36+x44-y36_44 <=1 
C910: x36+x48 <=1 
C911: x36+x50-y36_50 <=1 
C912: x36+x53-y36_53 <=1 
C913: x36+x56 <=1 
C914: x36+x57-y36_57 <=1 
C915: x36+x58-y36_58 <=1 
C916: x36+x59-y36_59 <=1 
C917: x37+x39 <=1 
C918: x37+x40-y37_40 <=1 
C919: x37+x41 <=1 
C920: x37+x42-y37_42 <=1 
C921: x37+x45 <=1 
C922: x37+x46-y37_46 <=1 
C923: x37+x49 <=1 
C924: x37+x50 <=1 
C925: x37+x52 <=1 
C926: x37+x54 <=1 
C927: x37+x55 <=1 
C928: x37+x57 <=1 
C929: x37+x58-y37_58 <=1 
C930: x37+x59 <=1 
C931: x38+x39 <=1 
C932: x38+x43-y38_43 <=1 
C933: x38+x44-y38_44 <=1 
C934: x38+x46-y38_46 <=1 
C935: x38+x47 <=1 
C936: x38+x48 <=1 
C937: x38+x49-y38_49 <=1 
C938: x38+x52 <=1 
C939: x38+x53 <=1 
C940: x38+x55 <=1 
C941: x38+x56-y38_56 <=1 
C942: x38+x57-y38_57 <=1 
C943: x39+x40-y39_40 <=1 
C944: x39+x42-y39_42 <=1 
C945: x39+x43 <=1 
C946: x39+x44-y39_44 <=1 
C947: x39+x48-y39_48 <=1 
C948: x39+x49-y39_49 <=1 
C949: x39+x50 <=1 
C950: x39+x51 <=1 
C951: x39+x52-y39_52 <=1 
C952: x39+x53 <=1 
C953: x39+x55-y39_55 <=1 
C954: x39+x56-y39_56 <=1 
C955: x39+x59 <=1 
C956: x40+x42-y40_42 <=1 
C957: x40+x43 <=1 
C958: x40+x44-y40_44 <=1 
C959: x40+x47-y40_47 <=1 
C960: x40+x48-y40_48 <=1 
C961: x40+x51-y40_51 <=1 
C962: x40+x52 <=1 
C963: x40+x57 <=1 
C964: x40+x59 <=1 
C965: x41+x42-y41_42 <=1 
C966: x41+x43-y41_43 <=1 
C967: x41+x44-y41_44 <=1 
C968: x41+x46 <=1 
C969: x41+x48 <=1 
C970: x41+x51-y41_51 <=1 
C971: x41+x52-y41_52 <=1 
C972: x41+x54 <=1 
C973: x41+x55 <=1 
C974: x41+x56-y41_56 <=1 
C975: x41+x57 <=1 
C976: x41+x58 <=1 
C977: x41+x59 <=1 
C978: x42+x43-y42_43 <=1 
C979: x42+x45 <=1 
C980: x42+x46 <=1 
C981: x42+x48-y42_48 <=1 
C982: x42+x49-y42_49 <=1 
C983: x42+x51-y42_51 <=1 
C984: x42+x52 <=1 
C985: x42+x54 <=1 
C986: x42+x56-y42_56 <=1 
C987: x42+x59 <=1 
C988: x43+x45-y43_45 <=1 
C989: x43+x47-y43_47 <=1 
C990: x43+x48 <=1 
C991: x43+x49-y43_49 <=1 
C992: x43+x51 <=1 
C993: x43+x53-y43_53 <=1 
C994: x43+x54-y43_54 <=1 
C995: x43+x55 <=1 
C996: x43+x57-y43_57 <=1 
C997: x43+x58-y43_58 <=1 
C998: x43+x59 <=1 
C999: x44+x45-y44_45 <=1 
C1000: x44+x48 <=1 
C1001: x44+x49 <=1 
C1002: x44+x50 <=1 
C1003: x44+x52-y44_52 <=1 
C1004: x44+x53-y44_53 <=1 
C1005: x44+x54-y44_54 <=1 
C1006: x44+x55 <=1 
C1007: x44+x56-y44_56 <=1 
C1008: x44+x57-y44_57 <=1 
C1009: x44+x58-y44_58 <=1 
C1010: x45+x46-y45_46 <=1 
C1011: x45+x49-y45_49 <=1 
C1012: x45+x50-y45_50 <=1 
C1013: x45+x51 <=1 
C1014: x45+x52 <=1 
C1015: x45+x53 <=1 
C1016: x45+x54 <=1 
C1017: x45+x55-y45_55 <=1 
C1018: x45+x56-y45_56 <=1 
C1019: x45+x57-y45_57 <=1 
C1020: x45+x59-y45_59 <=1 
C1021: x46+x47-y46_47 <=1 
C1022: x46+x49 <=1 
C1023: x46+x50-y46_50 <=1 
C1024: x46+x53-y46_53 <=1 
C1025: x46+x56 <=1 
C1026: x46+x57 <=1 
C1027: x46+x58-y46_58 <=1 
C1028: x46+x59-y46_59 <=1 
C1029: x47+x49 <=1 
C1030: x47+x50-y47_50 <=1 
C1031: x47+x51 <=1 
C1032: x47+x54 <=1 
C1033: x47+x55-y47_55 <=1 
C1034: x47+x56-y47_56 <=1 
C1035: x47+x57 <=1 
C1036: x47+x58 <=1 
C1037: x48+x49 <=1 
C1038: x48+x50 <=1 
C1039: x48+x52 <=1 
C1040: x48+x53-y48_53 <=1 
C1041: x48+x56-y48_56 <=1 
C1042: x49+x50 <=1 
C1043: x49+x51 <=1 
C1044: x49+x54 <=1 
C1045: x49+x55-y49_55 <=1 
C1046: x49+x56 <=1 
C1047: x49+x57-y49_57 <=1 
C1048: x49+x58 <=1 
C1049: x49+x59 <=1 
C1050: x50+x51-y50_51 <=1 
C1051: x50+x53 <=1 
C1052: x50+x54 <=1 
C1053: x50+x57-y50_57 <=1 
C1054: x50+x58 <=1 
C1055: x51+x54 <=1 
C1056: x51+x58-y51_58 <=1 
C1057: x52+x53-y52_53 <=1 
C1058: x52+x55-y52_55 <=1 
C1059: x52+x57-y52_57 <=1 
C1060: x53+x54 <=1 
C1061: x53+x55 <=1 
C1062: x53+x56-y53_56 <=1 
C1063: x53+x57 <=1 
C1064: x53+x59-y53_59 <=1 
C1065: x54+x55 <=1 
C1066: x54+x56-y54_56 <=1 
C1067: x54+x57-y54_57 <=1 
C1068: x54+x58 <=1 
C1069: x55+x57 <=1 
C1070: x55+x59 <=1 
C1071: x56+x57-y56_57 <=1 
C1072: x56+x59-y56_59 <=1 
C1073: x57+x58-y57_58 <=1 

binary
x0
x1
x2
x3
x4
x5
x6
x7
x8
x9
x10
x11
x12
x13
x14
x15
x16
x17
x18
x19
x20
x21
x22
x23
x24
x25
x26
x27
x28
x29
x30
x31
x32
x33
x34
x35
x36
x37
x38
x39
x40
x41
x42
x43
x44
x45
x46
x47
x48
x49
x50
x51
x52
x53
x54
x55
x56
x57
x58
x59
