problem_generation/data/GISP/train/er_n=60_m=1073_p=0.60_SET2_setparam=100.00_alpha=0.50_703.sol
objective value:                                 1176
x1                                                  1 	(obj:100)
x9                                                  1 	(obj:100)
x10                                                 1 	(obj:100)
x12                                                 1 	(obj:100)
x17                                                 1 	(obj:100)
x21                                                 1 	(obj:100)
x31                                                 1 	(obj:100)
x32                                                 1 	(obj:100)
x38                                                 1 	(obj:100)
x45                                                 1 	(obj:100)
x56                                                 1 	(obj:100)
x57                                                 1 	(obj:100)
y10_21                                              1 	(obj:-1)
y32_45                                              1 	(obj:-1)
y17_38                                              1 	(obj:-1)
y9_38                                               1 	(obj:-1)
y12_57                                              1 	(obj:-1)
y1_38                                               1 	(obj:-1)
y1_56                                               1 	(obj:-1)
y31_56                                              1 	(obj:-1)
y12_38                                              1 	(obj:-1)
y12_56                                              1 	(obj:-1)
y45_57                                              1 	(obj:-1)
y56_57                                              1 	(obj:-1)
y45_56                                              1 	(obj:-1)
y10_32                                              1 	(obj:-1)
y9_45                                               1 	(obj:-1)
y1_31                                               1 	(obj:-1)
y17_21                                              1 	(obj:-1)
y9_21                                               1 	(obj:-1)
y38_57                                              1 	(obj:-1)
y1_21                                               1 	(obj:-1)
y12_17                                              1 	(obj:-1)
y38_56                                              1 	(obj:-1)
y12_21                                              1 	(obj:-1)
y21_56                                              1 	(obj:-1)
